GeSe-3L-AB                                    
  1.00000000
  3.98216200   0.00000000   0.00000000
  0.00000000   4.28179169   0.00000000
  0.00000000   0.00000000  38.64186466
  Ge  Se
6 6 
Direct
  0.25000000   0.09915403   0.32588048
  0.75000000   0.90084597   0.53142571
  0.25000000   0.09915403   0.61126810
  0.75000000   0.59915405   0.38873192
  0.25000000   0.40084594   0.46857427
  0.75000000   0.59915405   0.67411952
  0.75000000   0.51384294   0.32348335
  0.25000000   0.48615706   0.53382284
  0.75000000   0.51384294   0.60887098
  0.25000000   0.01384296   0.39112902
  0.75000000   0.98615704   0.46617717
  0.25000000   0.01384296   0.67651664
