GeSe-3L-AB                              
   1.00000000000000     
     3.9231296593716198    0.0000000000000000    0.0000000000000000
     0.0000000000000000    4.4350867811036867    0.0000000000000000
     0.0000000000000000    0.0000000000000000   38.6418646600000031
   Ge   Se
     6     6
Direct
  0.2500000000000000  0.1103746285402091  0.3207946160515961
  0.7500000000000000  0.8823170412077551  0.5355662284175214
  0.2500000000000000  0.1132678231693880  0.6114888917219294
  0.7500000000000000  0.6132678431693894  0.3885111282780651
  0.2500000000000000  0.3823170112077598  0.4644337515824772
  0.7500000000000000  0.6103746485402106  0.6792053839484037
  0.7500000000000000  0.5061556347115269  0.3228464529153127
  0.2500000000000000  0.4930412954572062  0.5301050084800224
  0.7500000000000000  0.5078405469139192  0.6142181618111777
  0.2500000000000000  0.0078405669139141  0.3857818381888226
  0.7500000000000000  0.9930412754572112  0.4698950015199786
  0.2500000000000000  0.0061556547115212  0.6771535370846866
 
  0.00000000E+00  0.00000000E+00  0.00000000E+00
  0.00000000E+00  0.00000000E+00  0.00000000E+00
  0.00000000E+00  0.00000000E+00  0.00000000E+00
  0.00000000E+00  0.00000000E+00  0.00000000E+00
  0.00000000E+00  0.00000000E+00  0.00000000E+00
  0.00000000E+00  0.00000000E+00  0.00000000E+00
  0.00000000E+00  0.00000000E+00  0.00000000E+00
  0.00000000E+00  0.00000000E+00  0.00000000E+00
  0.00000000E+00  0.00000000E+00  0.00000000E+00
  0.00000000E+00  0.00000000E+00  0.00000000E+00
  0.00000000E+00  0.00000000E+00  0.00000000E+00
  0.00000000E+00  0.00000000E+00  0.00000000E+00
