SYSTEM  = GeSe-6L-AA
NWRITE  = 2 # This controls how much the output files will record
NCORE = 4

# for ionic relaxation
NSW     = 200 #number of steps, should be ~100-300
#NBLOCK  = 1
#KBLOCK  = 1
POTIM   = 0.5
TEBEG   = 300.0
#SMASS   = 0
IBRION  = 2    # 1,2,3: different methods for ionic relaxation; -1: no update
ISIF    = 2
EDIFFG  = -0.02 #eV/atom, relaxation will stop if all forces are less than this. Needs to be negative. 0.005 is high accuracy, 0.02.
M_FIXLATVEC = 0 0 1     # Qian modified VASP so you can fix x, y, z unit cell length
AMIN = 0.01

## Electronic Relaxation 1:
PREC    = High #Precision should be either "High" or "Accurate"
ISMEAR  = 1       # 0 for semiconductor,  1 or 2 for metals, start with 1 if unknown
SIGMA   = 0.050000 # smearing factor : eV
EDIFF   = 1e-05  # eV/whole unit cell; it is not ev/atom in other DFT packages; for large cells(>20), EDIFF = 1e-5; for samll ones, EDIFF = 1e-7
NLM    = 300 # max number of electronic relaxation steps

LREAL   = A

## Electronic Relaxation 2:
ALGO    = Fast
ISTART  = 0    #  0:scratch, 1:WAVECAR(ecut), 2:WAVECAR(pw), 3:MD
ICHARG  = 2    #  0:WAVECAR, 1:full scf(CHGCAR), 11:nscf(CHGCAR),only for band structure calculation 2: atom
ISYM    = 2    # -1/0: off (AFM calculation),  1: on for USPP,  2: on for PAW
LCHARG  = F    
LWAVE   = F