GeSe-6L-AA
   1.00000000000000
     3.9697847864708300    0.0000000000000000    0.0000000000000000
     0.0000000000000000    4.1991961917973013    0.0000000000000000
     0.0000000000000000    0.0000000000000000   55.6408871599999983
   Ge   Se
    12    12
Direct
  0.2500000000000000  0.0968147861390819  0.2187675908641306
  0.2500000000000000  0.0981694102235981  0.4249400141602965
  0.2500000000000000  0.0951923699111686  0.6316863445304166
  0.7500000000000000  0.5951923499111670  0.3683136354695816
  0.7500000000000000  0.5981693902235962  0.5750599858397036
  0.7500000000000000  0.5968147661390801  0.7812323991358686
  0.7500000000000000  0.5873897449816606  0.2632919471588608
  0.7500000000000000  0.5978604997322694  0.4718691378988261
  0.7500000000000000  0.5982171894116702  0.6780706103771758
  0.2500000000000000  0.0982172094116718  0.3219293996228249
  0.2500000000000000  0.0978605197322712  0.5281308821011682
  0.2500000000000000  0.0873897649816626  0.7367080528411389
  0.2500000000000000  0.0187740760840100  0.3696016763317520
  0.2500000000000000  0.0183256386844559  0.5762147074461363
  0.2500000000000000  0.0141647055371881  0.7832482314891368
  0.7500000000000000  0.5141646755371926  0.2167517585108621
  0.7500000000000000  0.5183256086844611  0.4237852925538630
  0.7500000000000000  0.5187740460840143  0.6303983136682471
  0.7500000000000000  0.5166658968245991  0.3205924048969211
  0.7500000000000000  0.5187439525272027  0.5269689633698570
  0.7500000000000000  0.5176636999431135  0.7350049746509845
  0.2500000000000000  0.0176637299431094  0.2649950253490160
  0.2500000000000000  0.0187439825271981  0.4730310366301432
  0.2500000000000000  0.0166659268245944  0.6794076251030814
