GeSe-6L-AA                              
   1.00000000000000     
     3.9698025927018135    0.0000000000000000    0.0000000000000000
     0.0000000000000000    4.2002313784657197    0.0000000000000000
     0.0000000000000000    0.0000000000000000   55.6408871599999983
   Ge   Se
    12    12
Direct
  0.2500000000000000  0.0972408727196168  0.2187502219938309
  0.2500000000000000  0.0977550860735096  0.4249586506813117
  0.2500000000000000  0.0953400104720110  0.6316794069797736
  0.7500000000000000  0.5953399904720095  0.3683205730202248
  0.7500000000000000  0.5977550660735078  0.5750413493186882
  0.7500000000000000  0.5972408527196151  0.7812497680061683
  0.7500000000000000  0.5873359959138950  0.2632499383003223
  0.7500000000000000  0.5976401803780829  0.4718747485654947
  0.7500000000000000  0.5982815424784611  0.6780696683449443
  0.2500000000000000  0.0982815624784627  0.3219303416550564
  0.2500000000000000  0.0976402003780844  0.5281252714344998
  0.2500000000000000  0.0873360159138965  0.7367500616996776
  0.2500000000000000  0.0186877398767720  0.3695880794125350
  0.2500000000000000  0.0179046679501982  0.5762061006281326
  0.2500000000000000  0.0143339132458637  0.7832653061478931
  0.7500000000000000  0.5143338832458683  0.2167346838521061
  0.7500000000000000  0.5179046379502027  0.4237938993718674
  0.7500000000000000  0.5186877098767767  0.6304119105874642
  0.7500000000000000  0.5170129840233596  0.3206099943218303
  0.7500000000000000  0.5186173631026992  0.5269728633099431
  0.7500000000000000  0.5178316137655576  0.7350351192791950
  0.2500000000000000  0.0178316437655531  0.2649648807208049
  0.2500000000000000  0.0186173931026944  0.4730271366900638
  0.2500000000000000  0.0170130140233547  0.6793900356781720
 
  0.00000000E+00  0.00000000E+00  0.00000000E+00
  0.00000000E+00  0.00000000E+00  0.00000000E+00
  0.00000000E+00  0.00000000E+00  0.00000000E+00
  0.00000000E+00  0.00000000E+00  0.00000000E+00
  0.00000000E+00  0.00000000E+00  0.00000000E+00
  0.00000000E+00  0.00000000E+00  0.00000000E+00
  0.00000000E+00  0.00000000E+00  0.00000000E+00
  0.00000000E+00  0.00000000E+00  0.00000000E+00
  0.00000000E+00  0.00000000E+00  0.00000000E+00
  0.00000000E+00  0.00000000E+00  0.00000000E+00
  0.00000000E+00  0.00000000E+00  0.00000000E+00
  0.00000000E+00  0.00000000E+00  0.00000000E+00
  0.00000000E+00  0.00000000E+00  0.00000000E+00
  0.00000000E+00  0.00000000E+00  0.00000000E+00
  0.00000000E+00  0.00000000E+00  0.00000000E+00
  0.00000000E+00  0.00000000E+00  0.00000000E+00
  0.00000000E+00  0.00000000E+00  0.00000000E+00
  0.00000000E+00  0.00000000E+00  0.00000000E+00
  0.00000000E+00  0.00000000E+00  0.00000000E+00
  0.00000000E+00  0.00000000E+00  0.00000000E+00
  0.00000000E+00  0.00000000E+00  0.00000000E+00
  0.00000000E+00  0.00000000E+00  0.00000000E+00
  0.00000000E+00  0.00000000E+00  0.00000000E+00
  0.00000000E+00  0.00000000E+00  0.00000000E+00
