GeSe-2L-AA
  1.00000000
  3.87795401   0.00000000   0.00000000
  0.00000000   4.54986906   0.00000000
  0.00000000   0.00000000  33.35644310
  Ge  Se
  4   4 
Direct
  0.25000000   0.11732700   0.37474019
  0.75000000   0.61732698   0.62525980
  0.75000000   0.61732698   0.45824227
  0.25000000   0.11732700   0.54175773
  0.25000000   0.99567002   0.61763511
  0.75000000   0.49566999   0.38236488
  0.75000000   0.49566999   0.54938242
  0.25000000   0.99567002   0.45061759


