GeSe-2L-AA                              
   1.00000000000000     
     3.9759917602351651    0.0000000000000000    0.0000000000000000
     0.0000000000000000    4.2402940640342157    0.0000000000000000
     0.0000000000000000    0.0000000000000000   33.3564430999999999
   Ge   Se
     4     4
Direct
  0.2500000000000000  0.1005379010061870  0.3753248836662691
  0.7500000000000000  0.6005378810061853  0.6246751063337299
  0.7500000000000000  0.5942624167632929  0.4490095370750301
  0.2500000000000000  0.0942624367632947  0.5509904629249698
  0.2500000000000000  0.0146894243200015  0.6279493314242884
  0.7500000000000000  0.5146893943200064  0.3720506585757108
  0.7500000000000000  0.5165042479105245  0.5481028325110160
  0.2500000000000000  0.0165042779105200  0.4518971774889852
 
  0.00000000E+00  0.00000000E+00  0.00000000E+00
  0.00000000E+00  0.00000000E+00  0.00000000E+00
  0.00000000E+00  0.00000000E+00  0.00000000E+00
  0.00000000E+00  0.00000000E+00  0.00000000E+00
  0.00000000E+00  0.00000000E+00  0.00000000E+00
  0.00000000E+00  0.00000000E+00  0.00000000E+00
  0.00000000E+00  0.00000000E+00  0.00000000E+00
  0.00000000E+00  0.00000000E+00  0.00000000E+00
