GeSe-3L-AA                              
   1.00000000000000     
     3.9724452795474616    0.0000000000000000    0.0000000000000000
     0.0000000000000000    4.2216419914789300    0.0000000000000000
     0.0000000000000000    0.0000000000000000   38.6418646600000031
   Ge   Se
     6     6
Direct
  0.2500000000000000  0.1015494276681521  0.3180856965033586
  0.2500000000000000  0.0977815711968863  0.4670568194784903
  0.2500000000000000  0.0907152353143431  0.6179255058012595
  0.7500000000000000  0.5907152553143449  0.3820745141987350
  0.7500000000000000  0.5977815911968881  0.5329432005215117
  0.7500000000000000  0.6015494476681538  0.6819143134966420
  0.7500000000000000  0.5157688264095834  0.3152369869292316
  0.7500000000000000  0.5157345009945703  0.4648626013113444
  0.7500000000000000  0.5174413484164787  0.6154777426245052
  0.2500000000000000  0.0174413684164734  0.3845222573754947
  0.2500000000000000  0.0157345209945649  0.5351373686886534
  0.2500000000000000  0.0157688464095778  0.6847630030707674
 
  0.00000000E+00  0.00000000E+00  0.00000000E+00
  0.00000000E+00  0.00000000E+00  0.00000000E+00
  0.00000000E+00  0.00000000E+00  0.00000000E+00
  0.00000000E+00  0.00000000E+00  0.00000000E+00
  0.00000000E+00  0.00000000E+00  0.00000000E+00
  0.00000000E+00  0.00000000E+00  0.00000000E+00
  0.00000000E+00  0.00000000E+00  0.00000000E+00
  0.00000000E+00  0.00000000E+00  0.00000000E+00
  0.00000000E+00  0.00000000E+00  0.00000000E+00
  0.00000000E+00  0.00000000E+00  0.00000000E+00
  0.00000000E+00  0.00000000E+00  0.00000000E+00
  0.00000000E+00  0.00000000E+00  0.00000000E+00
