GeSe-4L-AA
  1.00000000
  3.87795401   0.00000000   0.00000000
  0.00000000   4.54986906   0.00000000
  0.00000000   0.00000000  44.49866456
  Ge  Se
8 8 
Direct
  0.25000000   0.11732700   0.28090730
  0.25000000   0.11732700   0.53130182
  0.75000000   0.61732698   0.46869818
  0.75000000   0.61732698   0.71909269
  0.75000000   0.61732698   0.34350092
  0.75000000   0.61732698   0.59389544
  0.25000000   0.11732700   0.40610457
  0.25000000   0.11732700   0.65649908
  0.25000000   0.99567002   0.46298267
  0.25000000   0.99567002   0.71337720
  0.75000000   0.49566999   0.28662281
  0.75000000   0.49566999   0.53701732
  0.75000000   0.49566999   0.41182007
  0.75000000   0.49566999   0.66221457
  0.25000000   0.99567002   0.33778542
  0.25000000   0.99567002   0.58817994

