GeSe-4L-AA                              
   1.00000000000000     
     3.9744772112005964    0.0000000000000000    0.0000000000000000
     0.0000000000000000    4.2096097646336723    0.0000000000000000
     0.0000000000000000    0.0000000000000000   44.4986645600000017
   Ge   Se
     8     8
Direct
  0.2500000000000000  0.0989501148323284  0.2774046027021742
  0.2500000000000000  0.0962808258832613  0.5358589096502149
  0.7500000000000000  0.5962808058832595  0.4641410903497849
  0.7500000000000000  0.5989500948323274  0.7225953872978248
  0.7500000000000000  0.5904872783853119  0.3329181128144992
  0.7500000000000000  0.5977909540187061  0.5934712803720970
  0.2500000000000000  0.0977909740187073  0.4065287296278964
  0.2500000000000000  0.0904872983853131  0.6670818871855012
  0.2500000000000000  0.0178226622326403  0.4658297477590100
  0.2500000000000000  0.0150173820965815  0.7251274900827971
  0.7500000000000000  0.5150173520965863  0.2748725199171966
  0.7500000000000000  0.5178226322326449  0.5341702422409891
  0.7500000000000000  0.5160008657417920  0.4047586394064905
  0.7500000000000000  0.5196378968093919  0.6649043778425527
  0.2500000000000000  0.0196379268093869  0.3350956121574538
  0.2500000000000000  0.0160008957417879  0.5952413705935100
 
  0.00000000E+00  0.00000000E+00  0.00000000E+00
  0.00000000E+00  0.00000000E+00  0.00000000E+00
  0.00000000E+00  0.00000000E+00  0.00000000E+00
  0.00000000E+00  0.00000000E+00  0.00000000E+00
  0.00000000E+00  0.00000000E+00  0.00000000E+00
  0.00000000E+00  0.00000000E+00  0.00000000E+00
  0.00000000E+00  0.00000000E+00  0.00000000E+00
  0.00000000E+00  0.00000000E+00  0.00000000E+00
  0.00000000E+00  0.00000000E+00  0.00000000E+00
  0.00000000E+00  0.00000000E+00  0.00000000E+00
  0.00000000E+00  0.00000000E+00  0.00000000E+00
  0.00000000E+00  0.00000000E+00  0.00000000E+00
  0.00000000E+00  0.00000000E+00  0.00000000E+00
  0.00000000E+00  0.00000000E+00  0.00000000E+00
  0.00000000E+00  0.00000000E+00  0.00000000E+00
  0.00000000E+00  0.00000000E+00  0.00000000E+00
