GeSe-bulk                               
   1.00000000000000     
     3.8814697512549809    0.0000000000000000    0.0000000000000000
     0.0000000000000000    4.5535820344821278    0.0000000000000000
     0.0000000000000000    0.0000000000000000   11.1548626505494397
   Ge   Se
     4     4
Direct
  0.2500000000000000  0.1172248238238087  0.1249296287743054
  0.7500000000000000  0.8827751761761913  0.8750703712256946
  0.7500000000000000  0.6172248238238087  0.3750703712256946
  0.2500000000000000  0.3827751761761912  0.6249296287743054
  0.2500000000000000  0.5040032541503808  0.8522678688510547
  0.7500000000000000  0.4959967458496192  0.1477321311489453
  0.7500000000000000  0.0040032541503808  0.6477321311489453
  0.2500000000000000  0.9959967458496192  0.3522678688510547
 
  0.00000000E+00  0.00000000E+00  0.00000000E+00
  0.00000000E+00  0.00000000E+00  0.00000000E+00
  0.00000000E+00  0.00000000E+00  0.00000000E+00
  0.00000000E+00  0.00000000E+00  0.00000000E+00
  0.00000000E+00  0.00000000E+00  0.00000000E+00
  0.00000000E+00  0.00000000E+00  0.00000000E+00
  0.00000000E+00  0.00000000E+00  0.00000000E+00
  0.00000000E+00  0.00000000E+00  0.00000000E+00
