GeSe-bulk                               
   1.00000000000000     
     3.8864970451012550    0.0000000000000000    0.0000000000000000
    -0.0000000000000003    4.5358172788532443    0.0000000000000000
     0.0000000000000000    0.0000000000000000   11.1483925628037746
   Ge   Se
     4     4
Direct
  0.2500000000000000  0.1216172658624231  0.1249642258069266
  0.7500000000000000  0.8783827341375768  0.8750357741930734
  0.7500000000000000  0.6216172658624232  0.3750357741930733
  0.2500000000000000  0.3783827341375769  0.6249642258069266
  0.2500000000000000  0.4984295423700479  0.8526774694104068
  0.7500000000000000  0.5015704576299520  0.1473225305895934
  0.7500000000000000 -0.0015704576299521  0.6473225305895932
  0.2500000000000000  0.0015704576299522  0.3526774694104067
 
  0.00000000E+00  0.00000000E+00  0.00000000E+00
  0.00000000E+00  0.00000000E+00  0.00000000E+00
  0.00000000E+00  0.00000000E+00  0.00000000E+00
  0.00000000E+00  0.00000000E+00  0.00000000E+00
  0.00000000E+00  0.00000000E+00  0.00000000E+00
  0.00000000E+00  0.00000000E+00  0.00000000E+00
  0.00000000E+00  0.00000000E+00  0.00000000E+00
  0.00000000E+00  0.00000000E+00  0.00000000E+00
