GeSe-4L                                 
   1.00000000000000     
     3.9134885641390889    0.0000000000000000    0.0000000000000000
     0.0000000000000000    4.4621877159476826    0.0000000000000000
     0.0000000000000000    0.0000000000000000   44.4986645600000017
   Ge   Se
     8     8
Direct
  0.2500000000000000  0.1096331004807796  0.2821552362460861
  0.2500000000000000  0.1146562303378245  0.5314022143147732
  0.7500000000000000  0.8853437896621774  0.4685977856852265
  0.7500000000000000  0.8903669195192212  0.7178447537539128
  0.7500000000000000  0.6119621269053768  0.3412470945389977
  0.7500000000000000  0.6139050985519857  0.5935734310604903
  0.2500000000000000  0.3860948814480123  0.4064265789395037
  0.2500000000000000  0.3880378530946216  0.6587529054610021
  0.2500000000000000  0.4987419856294772  0.4633930496376042
  0.2500000000000000  0.4971487554639248  0.7157551913379925
  0.7500000000000000  0.5028512145360726  0.2842448186620010
  0.7500000000000000  0.5012579843705273  0.5366069403623951
  0.7500000000000000 -0.0006102760954416  0.4115375110801145
  0.7500000000000000  0.9959166273180319  0.6614190786754575
  0.2500000000000000  0.0040833926819698  0.3385809113245494
  0.2500000000000000  0.0006102960954434  0.5884624989198862
 
  0.00000000E+00  0.00000000E+00  0.00000000E+00
  0.00000000E+00  0.00000000E+00  0.00000000E+00
  0.00000000E+00  0.00000000E+00  0.00000000E+00
  0.00000000E+00  0.00000000E+00  0.00000000E+00
  0.00000000E+00  0.00000000E+00  0.00000000E+00
  0.00000000E+00  0.00000000E+00  0.00000000E+00
  0.00000000E+00  0.00000000E+00  0.00000000E+00
  0.00000000E+00  0.00000000E+00  0.00000000E+00
  0.00000000E+00  0.00000000E+00  0.00000000E+00
  0.00000000E+00  0.00000000E+00  0.00000000E+00
  0.00000000E+00  0.00000000E+00  0.00000000E+00
  0.00000000E+00  0.00000000E+00  0.00000000E+00
  0.00000000E+00  0.00000000E+00  0.00000000E+00
  0.00000000E+00  0.00000000E+00  0.00000000E+00
  0.00000000E+00  0.00000000E+00  0.00000000E+00
  0.00000000E+00  0.00000000E+00  0.00000000E+00
