GeSe-4L                                 
   1.00000000000000     
     3.8955571549603665    0.0000000000000000    0.0000000000000000
     0.0000000000000000    4.5153623931216620    0.0000000000000000
     0.0000000000000000    0.0000000000000000   44.4986645600000017
   Ge   Se
     8     8
Direct
  0.2500000000000000  0.1121152535364772  0.2825315562819373
  0.2500000000000000  0.1165675980199466  0.5314173699389972
  0.7500000000000000  0.8834324219800551  0.4685826300610028
  0.7500000000000000  0.8878847664635244  0.7174684337180618
  0.7500000000000000  0.6149207435308668  0.3422902191632121
  0.7500000000000000  0.6172464310425144  0.5939938931240401
  0.2500000000000000  0.3827535489574839  0.4060061168759536
  0.2500000000000000  0.3850792364691316  0.6577097808367879
  0.2500000000000000  0.5015648962402427  0.4629570871562719
  0.2500000000000000  0.5007118141573720  0.7146548794335307
  0.7500000000000000  0.4992881558426256  0.2853451305664630
  0.7500000000000000  0.4984350737597619  0.5370429028437272
  0.7500000000000000  0.0013552005940015  0.4116213421840197
  0.7500000000000000  0.9986730743475444  0.6611578942959820
  0.2500000000000000  0.0013269456524573  0.3388420957040242
  0.2500000000000000  0.9986448194060001  0.5883786678159811
 
  0.00000000E+00  0.00000000E+00  0.00000000E+00
  0.00000000E+00  0.00000000E+00  0.00000000E+00
  0.00000000E+00  0.00000000E+00  0.00000000E+00
  0.00000000E+00  0.00000000E+00  0.00000000E+00
  0.00000000E+00  0.00000000E+00  0.00000000E+00
  0.00000000E+00  0.00000000E+00  0.00000000E+00
  0.00000000E+00  0.00000000E+00  0.00000000E+00
  0.00000000E+00  0.00000000E+00  0.00000000E+00
  0.00000000E+00  0.00000000E+00  0.00000000E+00
  0.00000000E+00  0.00000000E+00  0.00000000E+00
  0.00000000E+00  0.00000000E+00  0.00000000E+00
  0.00000000E+00  0.00000000E+00  0.00000000E+00
  0.00000000E+00  0.00000000E+00  0.00000000E+00
  0.00000000E+00  0.00000000E+00  0.00000000E+00
  0.00000000E+00  0.00000000E+00  0.00000000E+00
  0.00000000E+00  0.00000000E+00  0.00000000E+00
