GeSe                                    
   1.00000000000000     
     3.9667113718256921    0.0000000000000000    0.0000000000000000
     0.0000000000000000    4.1889174488082208    0.0000000000000000
     0.0000000000000000    0.0000000000000000    5.7502335012922181
   Ge   Se
     2     2
Direct
  0.2500000000000000  0.0952742058278683  0.2718208637172231
  0.7500000000000000  0.5952742258278699  0.7281792062827755
  0.7500000000000000  0.5177227641721364  0.2615530344765983
  0.2500000000000000  0.0177227841721309  0.7384468855234021
 
  0.00000000E+00  0.00000000E+00  0.00000000E+00
  0.00000000E+00  0.00000000E+00  0.00000000E+00
  0.00000000E+00  0.00000000E+00  0.00000000E+00
  0.00000000E+00  0.00000000E+00  0.00000000E+00
