GeSe                                    
   1.00000000000000     
     3.9667113718256921    0.0000000000000000    0.0000000000000000
     0.0000000000000000    4.1889174488082208    0.0000000000000000
     0.0000000000000000    0.0000000000000000    5.7502335012922181
   Ge   Se
     2     2
Direct
  0.2500000000000000  0.0952742058278702  0.2718208637172239
  0.7500000000000000  0.5952742258278718  0.7281792062827748
  0.7500000000000000  0.5177227641721345  0.2615530344765986
  0.2500000000000000  0.0177227841721290  0.7384468855234019
 
  0.00000000E+00  0.00000000E+00  0.00000000E+00
  0.00000000E+00  0.00000000E+00  0.00000000E+00
  0.00000000E+00  0.00000000E+00  0.00000000E+00
  0.00000000E+00  0.00000000E+00  0.00000000E+00
