GeSe
  1.00000000
  3.87795400   0.00000000   0.00000000
  0.00000000   4.54986900   0.00000000
  0.00000000   0.00000000  27.78533235
  Ge  Se
2 2 
Direct
  0.25000000   0.11732700   0.44987765
  0.75000000   0.61732700   0.55012235
  0.75000000   0.49567000   0.45903112
  0.25000000   0.99567000   0.54096888
