GeSe-monoL                              
   1.00000000000000     
     4.2631170304167778    0.0000000000000000    0.0000000000000000
     0.0000000000000000    4.5569305012799086    0.0000000000000000
     0.0000000000000000    0.0000000000000000   27.7853323500000009
   Ge   Se
     2     2
Direct
  0.2500000000000000  0.1212067200239971  0.4555698517613862
  0.7500000000000000  0.6212067200239971  0.5444301482386138
  0.7500000000000000  0.4917902799760028  0.4560889074836298
  0.2500000000000000 -0.0082097200239971  0.5439110925163698
 
  0.00000000E+00  0.00000000E+00  0.00000000E+00
  0.00000000E+00  0.00000000E+00  0.00000000E+00
  0.00000000E+00  0.00000000E+00  0.00000000E+00
  0.00000000E+00  0.00000000E+00  0.00000000E+00
