GeSe-monoL
    1.00000000000000  
     4.2631170304167775390    0.0000000000000000    0.0000000000000000
     0.0000000000000000    4.5569305012799086850    0.0000000000000000
     0.0000000000000000    0.0000000000000000    27.7853323500000009
    Ge    Se
    2     2
Direct
  0.2500000000000000  0.0978767448418718  0.4563912250551619
  0.7500000000000000  0.5978767448418717  0.5436087749448379
  0.7500000000000000  0.5151202551581285  0.4529480642422335
  0.2500000000000000  0.0151202551581282  0.5470519357577664
