Ge4 Se4                                 
   1.00000000000000     
     3.9539486787064142    0.0000000000000000    0.0000000000000000
     0.0000000000000000    4.3649340923571263    0.0000000000000000
     0.0000000000000000    0.0000000000000000   33.3564429099999984
   Ge   Se
     4     4
Direct
  0.2500000000000000  0.1040378706597157  0.3762920781929427
  0.7500000000000000  0.8959621293402843  0.6237079218070573
  0.7500000000000000  0.6071782700750737  0.4533854511694765
  0.2500000000000000  0.3928217299249261  0.5466145488305232
  0.2500000000000000  0.4931649145814037  0.6226215436415619
  0.7500000000000000  0.5068350854185961  0.3773784563584384
  0.7500000000000000  0.9911145703055652  0.5483410440880196
  0.2500000000000000  0.0088854296944346  0.4516589559119801
 
  0.00000000E+00  0.00000000E+00  0.00000000E+00
  0.00000000E+00  0.00000000E+00  0.00000000E+00
  0.00000000E+00  0.00000000E+00  0.00000000E+00
  0.00000000E+00  0.00000000E+00  0.00000000E+00
  0.00000000E+00  0.00000000E+00  0.00000000E+00
  0.00000000E+00  0.00000000E+00  0.00000000E+00
  0.00000000E+00  0.00000000E+00  0.00000000E+00
  0.00000000E+00  0.00000000E+00  0.00000000E+00
