Ge4 Se4                                 
   1.00000000000000     
     3.9487474073709055    0.0000000000000000    0.0000000000000000
     0.0000000000000000    4.3782461032861049    0.0000000000000000
     0.0000000000000000    0.0000000000000000   33.3564429099999984
   Ge   Se
     4     4
Direct
  0.2500000000000000  0.1064969843584092  0.3763700905680815
  0.7500000000000000  0.8935030156415907  0.6236299094319188
  0.7500000000000000  0.6085448438104116  0.4536515092483713
  0.2500000000000000  0.3914551561895886  0.5463484907516288
  0.2500000000000000  0.4929333184950176  0.6222374925237102
  0.7500000000000000  0.5070666815049822  0.3777625074762902
  0.7500000000000000  0.9915877761565396  0.5483605492453744
  0.2500000000000000  0.0084122238434604  0.4516394507546251
 
  0.00000000E+00  0.00000000E+00  0.00000000E+00
  0.00000000E+00  0.00000000E+00  0.00000000E+00
  0.00000000E+00  0.00000000E+00  0.00000000E+00
  0.00000000E+00  0.00000000E+00  0.00000000E+00
  0.00000000E+00  0.00000000E+00  0.00000000E+00
  0.00000000E+00  0.00000000E+00  0.00000000E+00
  0.00000000E+00  0.00000000E+00  0.00000000E+00
  0.00000000E+00  0.00000000E+00  0.00000000E+00
