GeSe-6L
  1.00000000
  3.87795401   0.00000000   0.00000000
  0.00000000   4.54986906   0.00000000
  0.00000000   0.00000000  55.64088716
  Ge  Se
12 12 
Direct
  0.25000000   0.11732700   0.22465493
  0.25000000   0.11732700   0.42490735
  0.25000000   0.11732700   0.62515975
  0.75000000   0.88267302   0.37484023
  0.75000000   0.88267302   0.57509265
  0.75000000   0.88267302   0.77534506
  0.75000000   0.61732698   0.27471403
  0.75000000   0.61732698   0.47496645
  0.75000000   0.61732698   0.67521887
  0.25000000   0.38267300   0.32478114
  0.25000000   0.38267300   0.52503357
  0.25000000   0.38267300   0.72528597
  0.25000000   0.50432998   0.37026928
  0.25000000   0.50432998   0.57052170
  0.25000000   0.50432998   0.77077410
  0.75000000   0.49566999   0.22922589
  0.75000000   0.49566999   0.42947830
  0.75000000   0.49566999   0.62973071
  0.75000000   0.00433000   0.32935211
  0.75000000   0.00433000   0.52960452
  0.75000000   0.00433000   0.72985693
  0.25000000   0.99567002   0.27014307
  0.25000000   0.99567002   0.47039548
  0.25000000   0.99567002   0.67064792
