GeSe-6L                                 
   1.00000000000000     
     3.9040301766025620    0.0000000000000000    0.0000000000000000
     0.0000000000000000    4.4853298617698485    0.0000000000000000
     0.0000000000000000    0.0000000000000000   55.6408871599999983
   Ge   Se
    12    12
Direct
  0.2500000000000000  0.1111218245877724  0.2255400623929479
  0.2500000000000000  0.1206730335645294  0.4250299978028008
  0.2500000000000000  0.1179519938205658  0.6251032820552764
  0.7500000000000000  0.8820480261794356  0.3748966979447220
  0.7500000000000000  0.8793269864354722  0.5749700021971993
  0.7500000000000000  0.8888781954122293  0.7744599276070516
  0.7500000000000000  0.6141691792613634  0.2727918682608907
  0.7500000000000000  0.6207772166286027  0.4748997064809969
  0.7500000000000000  0.6174649335350864  0.6746508080797144
  0.2500000000000000  0.3825350464649121  0.3253492019202861
  0.2500000000000000  0.3792227633713955  0.5251003135189987
  0.2500000000000000  0.3858308007386350  0.7272081317391090
  0.2500000000000000  0.4968198337786112  0.3708683947034792
  0.2500000000000000  0.4950592343498962  0.5707523837996247
  0.2500000000000000  0.4975020363912035  0.7727486218365707
  0.7500000000000000  0.5024979336088011  0.2272513681634288
  0.7500000000000000  0.5049407356501087  0.4292476162003755
  0.7500000000000000  0.5031801362213933  0.6291315952965201
  0.7500000000000000 -0.0030509607301574  0.3292582852059248
  0.7500000000000000 -0.0049980965451264  0.5293359250978028
  0.7500000000000000 -0.0045763118696875  0.7293614825845562
  0.2500000000000000  0.0045763318696893  0.2706385174154441
  0.2500000000000000  0.0049981165451280  0.4706640749021971
  0.2500000000000000  0.0030509807301589  0.6707417447940780
 
  0.00000000E+00  0.00000000E+00  0.00000000E+00
  0.00000000E+00  0.00000000E+00  0.00000000E+00
  0.00000000E+00  0.00000000E+00  0.00000000E+00
  0.00000000E+00  0.00000000E+00  0.00000000E+00
  0.00000000E+00  0.00000000E+00  0.00000000E+00
  0.00000000E+00  0.00000000E+00  0.00000000E+00
  0.00000000E+00  0.00000000E+00  0.00000000E+00
  0.00000000E+00  0.00000000E+00  0.00000000E+00
  0.00000000E+00  0.00000000E+00  0.00000000E+00
  0.00000000E+00  0.00000000E+00  0.00000000E+00
  0.00000000E+00  0.00000000E+00  0.00000000E+00
  0.00000000E+00  0.00000000E+00  0.00000000E+00
  0.00000000E+00  0.00000000E+00  0.00000000E+00
  0.00000000E+00  0.00000000E+00  0.00000000E+00
  0.00000000E+00  0.00000000E+00  0.00000000E+00
  0.00000000E+00  0.00000000E+00  0.00000000E+00
  0.00000000E+00  0.00000000E+00  0.00000000E+00
  0.00000000E+00  0.00000000E+00  0.00000000E+00
  0.00000000E+00  0.00000000E+00  0.00000000E+00
  0.00000000E+00  0.00000000E+00  0.00000000E+00
  0.00000000E+00  0.00000000E+00  0.00000000E+00
  0.00000000E+00  0.00000000E+00  0.00000000E+00
  0.00000000E+00  0.00000000E+00  0.00000000E+00
  0.00000000E+00  0.00000000E+00  0.00000000E+00
